8233
4, 6, 15, 5, 24, 48, 38, 37, 40, 39, 44, 16, 29, 50, 20, 23, 30, 2, 7, 42, 21, 17, 3, 19, 41, 8, 9, 10, 33, 43, 45, 18, 31, 22, 1, 32, 49, 36, 35, 34, 46, 28, 27, 26, 47, 13, 14, 52, 11, 51, 12, 25
